3 40 1 10
20 13 4 17 13 10 12 12 3 2 14 2 12 3 9 15 20 9 3 13 13 15 6 11 10 7 8 16 14 17 18 7 2 2 10 11 15 9 6 8 
2.69 7.04 7.56 3.13 0.88 4.28 4.7 3.99 5.61 0.93 5.3 5.26 0.53 7.18 7.67 4.46 0.18 5.25 0.26 0.94 4.44 7.58 0.6 5.48 2.57 1.46 6.34 5.82 4.48 4.59 4.64 7.03 7.34 6.28 0.84 6.25 7.91 5.09 5.13 5.84 
4 4 4 4 4 4 4 4 4 4 4 4 4 4 4 4 4 4 4 4 4 4 4 4 4 4 4 4 4 4 4 4 4 4 4 4 4 4 4 4 
5.5 6.12 0.13 0.3 6.97 0.82 3.15 2.19 3.18 0.71 5.09 6.23 3.18 2.17 7.52 6.96 7.33 6.36 2.98 7.42 1.81 0.09 3.25 6.54 7.94 1.22 2.44 3.76 3.97 1.56 1.59 5.99 3.86 7.95 7.62 7.89 3.21 4.73 0.1 2.79 
1 1 1 1 1 1 1 1 1 1 1 1 1 1 1 1 1 1 1 1 1 1 1 1 1 1 1 1 1 1 1 1 1 1 1 1 1 1 1 1 
1 1 1 1 1 1 1 1 1 1 1 1 1 1 1 1 1 1 1 1 1 1 1 1 1 1 1 1 1 1 1 1 1 1 1 1 1 1 1 1 
1 1 1 1 1 1 1 1 1 1 1 1 1 1 1 1 1 1 1 1 1 1 1 1 1 1 1 1 1 1 1 1 1 1 1 1 1 1 1 1 
0.01 0.01 0.01 0.01 0.01 0.01 0.01 0.01 0.01 0.01 0.01 0.01 0.01 0.01 0.01 0.01 0.01 0.01 0.01 0.01 0.01 0.01 0.01 0.01 0.01 0.01 0.01 0.01 0.01 0.01 0.01 0.01 0.01 0.01 0.01 0.01 0.01 0.01 0.01 0.01 
0.02 0.02 0.02 0.02 0.02 0.02 0.02 0.02 0.02 0.02 0.02 0.02 0.02 0.02 0.02 0.02 0.02 0.02 0.02 0.02 0.02 0.02 0.02 0.02 0.02 0.02 0.02 0.02 0.02 0.02 0.02 0.02 0.02 0.02 0.02 0.02 0.02 0.02 0.02 0.02 
1 1 1 1 1 1 1 1 1 1 1 1 1 1 1 1 1 1 1 1 1 1 1 1 1 1 1 1 1 1 1 1 1 1 1 1 1 1 1 1 
